CIF file                                
   4.05000000000000     
     0.9971619531450123    0.0000000000000000    0.0000000000000000
     0.0000000000000000    0.9971619531450123    0.0000000000000000
     0.0000000000000000    0.0000000000000000    0.9971619531450123
   Al
     4
Direct
  0.0000000000000000  0.0000000000000000  0.0000000000000000
  0.5000000000000000  0.5000000000000000  0.0000000000000000
  0.5000000000000000  0.0000000000000000  0.5000000000000000
  0.0000000000000000  0.5000000000000000  0.5000000000000000
 
  0.00000000E+00  0.00000000E+00  0.00000000E+00
  0.00000000E+00  0.00000000E+00  0.00000000E+00
  0.00000000E+00  0.00000000E+00  0.00000000E+00
  0.00000000E+00  0.00000000E+00  0.00000000E+00
